pymatgen v1.1 with grid density = 1647 / atom
0
Gamma
8 8 7

