Mg1 B2
1.0
3.073680 0.000000 0.000000
-1.536840 2.661885 0.000000
0.000000 0.000000 3.534350
Mg B
1 2
direct
0.000000 0.000000 0.000000 Mg
0.333333 0.666667 0.500000 B
0.666667 0.333333 0.500000 B

